52
36 43 130
43 49 175
49 19 35
19 22 94
22 29 179
29 20 242
20 16 253
16 41 408
41 6 76
6 1 45
1 52 150
52 28 645
28 15 201
15 45 156
45 24 173
24 27 329
27 26 110
26 25 126
25 46 186
46 12 324
12 13 206
13 51 319
51 10 399
10 11 387
11 50 188
50 32 475
32 42 365
42 9 308
9 8 83
8 7 183
7 40 64
40 18 92
18 44 75
44 2 220
2 17 135
17 30 80
30 21 104
21 31 97
31 48 50
48 34 85
34 33 21
33 35 34
35 38 43
38 39 43
39 14 90
14 3 100
3 5 70
5 4 35
4 23 32
23 47 16
47 37 49
37 36 43

